p wcnf 136 641 453
1 -1 0
1 -2 0
1 -3 0
1 -4 0
1 -5 0
1 -6 0
1 7 0
1 -8 0
1 -9 0
1 -10 0
1 -11 0
1 -12 0
1 -13 0
1 -14 0
1 -15 0
1 -16 0
1 -17 0
1 -18 0
1 -19 0
1 -20 0
1 -21 0
1 -22 0
1 -23 0
1 -24 0
1 -25 0
1 -26 0
1 -27 0
1 -28 0
1 -29 0
1 -30 0
1 -31 0
1 -32 0
1 -33 0
1 -34 0
1 35 0
1 -36 0
1 -37 0
1 -38 0
1 -39 0
1 -40 0
1 41 0
1 -42 0
1 -43 0
1 -44 0
1 -45 0
1 -46 0
1 47 0
1 -48 0
1 -49 0
1 -50 0
1 -51 0
1 -52 0
1 -53 0
1 -54 0
1 55 0
1 -56 0
1 57 0
1 -58 0
1 -59 0
1 -60 0
1 -61 0
1 -62 0
1 63 0
1 -64 0
1 -65 0
1 -66 0
1 -67 0
1 -68 0
1 -69 0
1 -70 0
1 -71 0
1 72 0
10 -73 0
10 -74 0
10 -75 0
10 -76 0
10 -77 0
10 -78 0
10 -79 0
10 -80 0
10 -81 0
10 -82 0
10 -83 0
10 -84 0
10 -85 0
10 -86 0
10 -87 0
10 -88 0
10 -89 0
10 -90 0
10 -91 0
10 -92 0
10 -93 0
10 -94 0
10 -95 0
10 -96 0
10 -97 0
10 -98 0
10 -99 0
10 -100 0
10 -101 0
10 -102 0
10 -103 0
10 -104 0
10 -105 0
10 -106 0
10 -107 0
10 -108 0
10 -109 0
10 -110 0
453 73 2 3 7 8 9 10 14 15 16 17 24 25 26 27 32 33 34 35 0
453 73 38 39 43 44 45 46 50 51 52 53 60 61 62 63 68 69 70 71 0
453 74 2 3 7 8 9 10 13 14 15 16 25 26 27 28 31 32 33 34 0
453 74 38 39 43 44 45 46 49 50 51 52 61 62 63 64 67 68 69 70 0
453 75 2 3 9 10 11 12 14 15 16 17 25 26 27 28 33 34 35 36 0
453 75 38 39 45 46 47 48 50 51 52 53 61 62 63 64 69 70 71 72 0
453 76 1 4 5 6 7 8 13 14 15 16 21 22 23 24 30 31 32 33 0
453 76 37 40 41 42 43 44 49 50 51 52 57 58 59 60 66 67 68 69 0
453 77 1 3 8 9 10 11 14 15 16 17 25 26 27 28 32 33 34 35 0
453 77 37 39 44 45 46 47 50 51 52 53 61 62 63 64 68 69 70 71 0
453 78 1 4 5 6 7 8 15 16 17 18 21 22 23 24 29 30 31 32 0
453 78 37 40 41 42 43 44 51 52 53 54 57 58 59 60 65 66 67 68 0
453 79 1 3 8 9 10 11 13 14 15 16 24 25 26 27 32 33 34 35 0
453 79 37 39 44 45 46 47 49 50 51 52 60 61 62 63 68 69 70 71 0
453 80 1 4 7 8 9 10 14 15 16 17 24 25 26 27 32 33 34 35 0
453 80 37 40 43 44 45 46 50 51 52 53 60 61 62 63 68 69 70 71 0
453 81 2 3 5 6 7 8 14 15 16 17 21 22 23 24 29 30 31 32 0
453 81 38 39 41 42 43 44 50 51 52 53 57 58 59 60 65 66 67 68 0
453 82 2 4 8 9 10 11 16 17 18 19 25 26 27 28 33 34 35 36 0
453 82 38 40 44 45 46 47 52 53 54 55 61 62 63 64 69 70 71 72 0
453 83 2 4 6 7 8 9 17 18 19 20 21 22 23 24 29 30 31 32 0
453 83 38 40 42 43 44 45 53 54 55 56 57 58 59 60 65 66 67 68 0
453 84 1 4 6 7 8 9 14 15 16 17 24 25 26 27 33 34 35 36 0
453 84 37 40 42 43 44 45 50 51 52 53 60 61 62 63 69 70 71 72 0
453 85 1 4 6 7 8 9 17 18 19 20 21 22 23 24 29 30 31 32 0
453 85 37 40 42 43 44 45 53 54 55 56 57 58 59 60 65 66 67 68 0
453 86 2 3 7 8 9 10 17 18 19 20 21 22 23 24 29 30 31 32 0
453 86 38 39 43 44 45 46 53 54 55 56 57 58 59 60 65 66 67 68 0
453 87 2 3 5 6 7 8 16 17 18 19 21 22 23 24 29 30 31 32 0
453 87 38 39 41 42 43 44 52 53 54 55 57 58 59 60 65 66 67 68 0
453 88 1 3 6 7 8 9 17 18 19 20 21 22 23 24 29 30 31 32 0
453 88 37 39 42 43 44 45 53 54 55 56 57 58 59 60 65 66 67 68 0
453 89 1 4 9 10 11 12 14 15 16 17 24 25 26 27 33 34 35 36 0
453 89 37 40 45 46 47 48 50 51 52 53 60 61 62 63 69 70 71 72 0
453 90 1 3 9 10 11 12 14 15 16 17 25 26 27 28 33 34 35 36 0
453 90 37 39 45 46 47 48 50 51 52 53 61 62 63 64 69 70 71 72 0
453 91 1 4 8 9 10 11 14 15 16 17 24 25 26 27 31 32 33 34 0
453 91 37 40 44 45 46 47 50 51 52 53 60 61 62 63 67 68 69 70 0
453 92 2 4 6 7 8 9 16 17 18 19 22 23 24 25 29 30 31 32 0
453 92 38 40 42 43 44 45 52 53 54 55 58 59 60 61 65 66 67 68 0
453 93 2 3 5 6 7 8 16 17 18 19 21 22 23 24 30 31 32 33 0
453 93 38 39 41 42 43 44 52 53 54 55 57 58 59 60 66 67 68 69 0
453 94 1 3 6 7 8 9 16 17 18 19 21 22 23 24 29 30 31 32 0
453 94 37 39 42 43 44 45 52 53 54 55 57 58 59 60 65 66 67 68 0
453 95 2 3 7 8 9 10 13 14 15 16 24 25 26 27 32 33 34 35 0
453 95 38 39 43 44 45 46 49 50 51 52 60 61 62 63 68 69 70 71 0
453 96 2 4 9 10 11 12 16 17 18 19 25 26 27 28 33 34 35 36 0
453 96 38 40 45 46 47 48 52 53 54 55 61 62 63 64 69 70 71 72 0
453 97 1 3 6 7 8 9 17 18 19 20 21 22 23 24 30 31 32 33 0
453 97 37 39 42 43 44 45 53 54 55 56 57 58 59 60 66 67 68 69 0
453 98 111 112 0
453 -111 -2 0
453 -111 -3 0
453 -111 -7 0
453 -111 -8 0
453 -111 -9 0
453 -111 -10 0
453 -111 -13 0
453 -111 -14 0
453 -111 -15 0
453 -111 -16 0
453 -111 -22 0
453 -111 -23 0
453 -111 -24 0
453 -111 -25 0
453 -111 -31 0
453 -111 -32 0
453 -111 -33 0
453 -111 -34 0
453 -112 -38 0
453 -112 -39 0
453 -112 -43 0
453 -112 -44 0
453 -112 -45 0
453 -112 -46 0
453 -112 -49 0
453 -112 -50 0
453 -112 -51 0
453 -112 -52 0
453 -112 -58 0
453 -112 -59 0
453 -112 -60 0
453 -112 -61 0
453 -112 -67 0
453 -112 -68 0
453 -112 -69 0
453 -112 -70 0
453 99 113 114 0
453 -113 -1 0
453 -113 -4 0
453 -113 -6 0
453 -113 -7 0
453 -113 -8 0
453 -113 -9 0
453 -113 -13 0
453 -113 -14 0
453 -113 -15 0
453 -113 -16 0
453 -113 -23 0
453 -113 -24 0
453 -113 -25 0
453 -113 -26 0
453 -113 -31 0
453 -113 -32 0
453 -113 -33 0
453 -113 -34 0
453 -114 -37 0
453 -114 -40 0
453 -114 -42 0
453 -114 -43 0
453 -114 -44 0
453 -114 -45 0
453 -114 -49 0
453 -114 -50 0
453 -114 -51 0
453 -114 -52 0
453 -114 -59 0
453 -114 -60 0
453 -114 -61 0
453 -114 -62 0
453 -114 -67 0
453 -114 -68 0
453 -114 -69 0
453 -114 -70 0
453 100 115 116 0
453 -115 -1 0
453 -115 -4 0
453 -115 -7 0
453 -115 -8 0
453 -115 -9 0
453 -115 -10 0
453 -115 -14 0
453 -115 -15 0
453 -115 -16 0
453 -115 -17 0
453 -115 -24 0
453 -115 -25 0
453 -115 -26 0
453 -115 -27 0
453 -115 -31 0
453 -115 -32 0
453 -115 -33 0
453 -115 -34 0
453 -116 -37 0
453 -116 -40 0
453 -116 -43 0
453 -116 -44 0
453 -116 -45 0
453 -116 -46 0
453 -116 -50 0
453 -116 -51 0
453 -116 -52 0
453 -116 -53 0
453 -116 -60 0
453 -116 -61 0
453 -116 -62 0
453 -116 -63 0
453 -116 -67 0
453 -116 -68 0
453 -116 -69 0
453 -116 -70 0
453 101 117 118 0
453 -117 -2 0
453 -117 -4 0
453 -117 -8 0
453 -117 -9 0
453 -117 -10 0
453 -117 -11 0
453 -117 -16 0
453 -117 -17 0
453 -117 -18 0
453 -117 -19 0
453 -117 -24 0
453 -117 -25 0
453 -117 -26 0
453 -117 -27 0
453 -117 -32 0
453 -117 -33 0
453 -117 -34 0
453 -117 -35 0
453 -118 -38 0
453 -118 -40 0
453 -118 -44 0
453 -118 -45 0
453 -118 -46 0
453 -118 -47 0
453 -118 -52 0
453 -118 -53 0
453 -118 -54 0
453 -118 -55 0
453 -118 -60 0
453 -118 -61 0
453 -118 -62 0
453 -118 -63 0
453 -118 -68 0
453 -118 -69 0
453 -118 -70 0
453 -118 -71 0
453 102 119 120 0
453 -119 -1 0
453 -119 -3 0
453 -119 -7 0
453 -119 -8 0
453 -119 -9 0
453 -119 -10 0
453 -119 -14 0
453 -119 -15 0
453 -119 -16 0
453 -119 -17 0
453 -119 -24 0
453 -119 -25 0
453 -119 -26 0
453 -119 -27 0
453 -119 -31 0
453 -119 -32 0
453 -119 -33 0
453 -119 -34 0
453 -120 -37 0
453 -120 -39 0
453 -120 -43 0
453 -120 -44 0
453 -120 -45 0
453 -120 -46 0
453 -120 -50 0
453 -120 -51 0
453 -120 -52 0
453 -120 -53 0
453 -120 -60 0
453 -120 -61 0
453 -120 -62 0
453 -120 -63 0
453 -120 -67 0
453 -120 -68 0
453 -120 -69 0
453 -120 -70 0
453 103 121 122 0
453 -121 -2 0
453 -121 -4 0
453 -121 -6 0
453 -121 -7 0
453 -121 -8 0
453 -121 -9 0
453 -121 -14 0
453 -121 -15 0
453 -121 -16 0
453 -121 -17 0
453 -121 -23 0
453 -121 -24 0
453 -121 -25 0
453 -121 -26 0
453 -121 -31 0
453 -121 -32 0
453 -121 -33 0
453 -121 -34 0
453 -122 -38 0
453 -122 -40 0
453 -122 -42 0
453 -122 -43 0
453 -122 -44 0
453 -122 -45 0
453 -122 -50 0
453 -122 -51 0
453 -122 -52 0
453 -122 -53 0
453 -122 -59 0
453 -122 -60 0
453 -122 -61 0
453 -122 -62 0
453 -122 -67 0
453 -122 -68 0
453 -122 -69 0
453 -122 -70 0
453 104 123 124 0
453 -123 -2 0
453 -123 -4 0
453 -123 -9 0
453 -123 -10 0
453 -123 -11 0
453 -123 -12 0
453 -123 -14 0
453 -123 -15 0
453 -123 -16 0
453 -123 -17 0
453 -123 -24 0
453 -123 -25 0
453 -123 -26 0
453 -123 -27 0
453 -123 -31 0
453 -123 -32 0
453 -123 -33 0
453 -123 -34 0
453 -124 -38 0
453 -124 -40 0
453 -124 -45 0
453 -124 -46 0
453 -124 -47 0
453 -124 -48 0
453 -124 -50 0
453 -124 -51 0
453 -124 -52 0
453 -124 -53 0
453 -124 -60 0
453 -124 -61 0
453 -124 -62 0
453 -124 -63 0
453 -124 -67 0
453 -124 -68 0
453 -124 -69 0
453 -124 -70 0
453 105 125 126 0
453 -125 -1 0
453 -125 -3 0
453 -125 -7 0
453 -125 -8 0
453 -125 -9 0
453 -125 -10 0
453 -125 -13 0
453 -125 -14 0
453 -125 -15 0
453 -125 -16 0
453 -125 -23 0
453 -125 -24 0
453 -125 -25 0
453 -125 -26 0
453 -125 -30 0
453 -125 -31 0
453 -125 -32 0
453 -125 -33 0
453 -126 -37 0
453 -126 -39 0
453 -126 -43 0
453 -126 -44 0
453 -126 -45 0
453 -126 -46 0
453 -126 -49 0
453 -126 -50 0
453 -126 -51 0
453 -126 -52 0
453 -126 -59 0
453 -126 -60 0
453 -126 -61 0
453 -126 -62 0
453 -126 -66 0
453 -126 -67 0
453 -126 -68 0
453 -126 -69 0
453 106 127 128 0
453 -127 -1 0
453 -127 -4 0
453 -127 -7 0
453 -127 -8 0
453 -127 -9 0
453 -127 -10 0
453 -127 -16 0
453 -127 -17 0
453 -127 -18 0
453 -127 -19 0
453 -127 -23 0
453 -127 -24 0
453 -127 -25 0
453 -127 -26 0
453 -127 -32 0
453 -127 -33 0
453 -127 -34 0
453 -127 -35 0
453 -128 -37 0
453 -128 -40 0
453 -128 -43 0
453 -128 -44 0
453 -128 -45 0
453 -128 -46 0
453 -128 -52 0
453 -128 -53 0
453 -128 -54 0
453 -128 -55 0
453 -128 -59 0
453 -128 -60 0
453 -128 -61 0
453 -128 -62 0
453 -128 -68 0
453 -128 -69 0
453 -128 -70 0
453 -128 -71 0
453 107 129 130 0
453 -129 -1 0
453 -129 -4 0
453 -129 -9 0
453 -129 -10 0
453 -129 -11 0
453 -129 -12 0
453 -129 -14 0
453 -129 -15 0
453 -129 -16 0
453 -129 -17 0
453 -129 -24 0
453 -129 -25 0
453 -129 -26 0
453 -129 -27 0
453 -129 -32 0
453 -129 -33 0
453 -129 -34 0
453 -129 -35 0
453 -130 -37 0
453 -130 -40 0
453 -130 -45 0
453 -130 -46 0
453 -130 -47 0
453 -130 -48 0
453 -130 -50 0
453 -130 -51 0
453 -130 -52 0
453 -130 -53 0
453 -130 -60 0
453 -130 -61 0
453 -130 -62 0
453 -130 -63 0
453 -130 -68 0
453 -130 -69 0
453 -130 -70 0
453 -130 -71 0
453 108 131 132 0
453 -131 -2 0
453 -131 -4 0
453 -131 -7 0
453 -131 -8 0
453 -131 -9 0
453 -131 -10 0
453 -131 -13 0
453 -131 -14 0
453 -131 -15 0
453 -131 -16 0
453 -131 -23 0
453 -131 -24 0
453 -131 -25 0
453 -131 -26 0
453 -131 -31 0
453 -131 -32 0
453 -131 -33 0
453 -131 -34 0
453 -132 -38 0
453 -132 -40 0
453 -132 -43 0
453 -132 -44 0
453 -132 -45 0
453 -132 -46 0
453 -132 -49 0
453 -132 -50 0
453 -132 -51 0
453 -132 -52 0
453 -132 -59 0
453 -132 -60 0
453 -132 -61 0
453 -132 -62 0
453 -132 -67 0
453 -132 -68 0
453 -132 -69 0
453 -132 -70 0
453 109 133 134 0
453 -133 -1 0
453 -133 -4 0
453 -133 -8 0
453 -133 -9 0
453 -133 -10 0
453 -133 -11 0
453 -133 -14 0
453 -133 -15 0
453 -133 -16 0
453 -133 -17 0
453 -133 -23 0
453 -133 -24 0
453 -133 -25 0
453 -133 -26 0
453 -133 -31 0
453 -133 -32 0
453 -133 -33 0
453 -133 -34 0
453 -134 -37 0
453 -134 -40 0
453 -134 -44 0
453 -134 -45 0
453 -134 -46 0
453 -134 -47 0
453 -134 -50 0
453 -134 -51 0
453 -134 -52 0
453 -134 -53 0
453 -134 -59 0
453 -134 -60 0
453 -134 -61 0
453 -134 -62 0
453 -134 -67 0
453 -134 -68 0
453 -134 -69 0
453 -134 -70 0
453 110 135 136 0
453 -135 -2 0
453 -135 -4 0
453 -135 -5 0
453 -135 -6 0
453 -135 -7 0
453 -135 -8 0
453 -135 -13 0
453 -135 -14 0
453 -135 -15 0
453 -135 -16 0
453 -135 -22 0
453 -135 -23 0
453 -135 -24 0
453 -135 -25 0
453 -135 -30 0
453 -135 -31 0
453 -135 -32 0
453 -135 -33 0
453 -136 -38 0
453 -136 -40 0
453 -136 -41 0
453 -136 -42 0
453 -136 -43 0
453 -136 -44 0
453 -136 -49 0
453 -136 -50 0
453 -136 -51 0
453 -136 -52 0
453 -136 -58 0
453 -136 -59 0
453 -136 -60 0
453 -136 -61 0
453 -136 -66 0
453 -136 -67 0
453 -136 -68 0
453 -136 -69 0
